(set-logic ALL)
(declare-fun var0 () String)
(assert (str.in_re var0 (re.++ (re.* (re.+ (str.to_re "000"))) (re.++ (re.+ (re.+ (str.to_re "1"))) (re.++ (re.* (re.+ (str.to_re "2"))) (re.++ (re.union (re.+ (str.to_re "33")) (re.+ (str.to_re "4"))) (re.++ (re.+ (re.union (str.to_re "55") (str.to_re "66"))) (re.++ (re.+ (re.* (str.to_re "77"))) (re.++ (re.* (re.union (str.to_re "888") (str.to_re "9"))) (re.++ (re.+ (re.* (str.to_re "aa"))) (re.++ (re.+ (re.union (str.to_re "b") (str.to_re "cc"))) (re.++ (re.+ (re.union (str.to_re "ddd") (str.to_re "e"))) (re.++ (re.union (re.* (str.to_re "f")) (re.* (str.to_re "g"))) (re.++ (re.+ (re.+ (str.to_re "h"))) (re.++ (re.* (re.* (str.to_re "iii"))) (re.++ (re.union (re.union (str.to_re "jj") (str.to_re "kkk")) (re.union (str.to_re "lll") (str.to_re "mmm"))) (re.++ (re.union (re.union (str.to_re "nnn") (str.to_re "oo")) (re.union (str.to_re "p") (str.to_re "qq"))) (re.++ (re.* (re.+ (str.to_re "r"))) (re.++ (re.union (re.union (str.to_re "ss") (str.to_re "t")) (re.union (str.to_re "u") (str.to_re "v"))) (re.++ (re.+ (re.union (str.to_re "w") (str.to_re "x"))) (re.++ (re.+ (re.+ (str.to_re "yy"))) (re.++ (re.union (re.* (str.to_re "zz")) (re.* (str.to_re "AAA"))) (re.++ (re.union (re.* (str.to_re "B")) (re.* (str.to_re "CCC"))) (re.++ (re.union (re.union (str.to_re "DD") (str.to_re "E")) (re.union (str.to_re "FFF") (str.to_re "GG"))) (re.++ (re.* (re.* (str.to_re "HHH"))) (re.++ (re.union (re.+ (str.to_re "I")) (re.+ (str.to_re "JJ"))) (re.++ (re.* (re.union (str.to_re "K") (str.to_re "L"))) (re.++ (re.+ (re.union (str.to_re "MM") (str.to_re "N"))) (re.++ (re.union (re.+ (str.to_re "OO")) (re.+ (str.to_re "PPP"))) (re.++ (re.+ (re.union (str.to_re "QQQ") (str.to_re "R"))) (re.++ (re.union (re.union (str.to_re "SSS") (str.to_re "TTT")) (re.union (str.to_re "UUU") (str.to_re "VVV"))) (re.++ (re.* (re.* (str.to_re "WWW"))) (re.++ (re.+ (re.+ (str.to_re "XX"))) (re.++ (re.union (re.+ (str.to_re "Y")) (re.+ (str.to_re "ZZZ"))) (re.++ (re.+ (re.union (str.to_re "!!") (str.to_re """"""""))) (re.++ (re.union (re.* (str.to_re "#")) (re.* (str.to_re "$$"))) (re.++ (re.+ (re.union (str.to_re "%%%") (str.to_re "&&"))) (re.++ (re.* (re.* (str.to_re "'''"))) (re.++ (re.union (re.* (str.to_re "(((")) (re.* (str.to_re ")"))) (re.++ (re.+ (re.+ (str.to_re "**"))) (re.++ (re.+ (re.union (str.to_re "++") (str.to_re ",,,"))) (re.++ (re.* (re.+ (str.to_re "---"))) (re.union (re.* (str.to_re "..")) (re.* (str.to_re "//")))))))))))))))))))))))))))))))))))))))))))))
(assert (not (str.in_re var0 (re.++ (re.union (re.+ (str.to_re "000")) (re.+ (str.to_re "1"))) (re.++ (re.union (re.+ (str.to_re "222")) (re.+ (str.to_re "3"))) (re.++ (re.* (re.* (str.to_re "444"))) (re.++ (re.union (re.* (str.to_re "55")) (re.* (str.to_re "666"))) (re.++ (re.union (re.+ (str.to_re "77")) (re.+ (str.to_re "888"))) (re.++ (re.+ (re.* (str.to_re "9"))) (re.++ (re.+ (re.* (str.to_re "aaa"))) (re.++ (re.+ (re.* (str.to_re "b"))) (re.++ (re.+ (re.+ (str.to_re "c"))) (re.++ (re.+ (re.union (str.to_re "ddd") (str.to_re "e"))) (re.++ (re.* (re.* (str.to_re "ff"))) (re.++ (re.+ (re.union (str.to_re "ggg") (str.to_re "hh"))) (re.++ (re.* (re.+ (str.to_re "ii"))) (re.++ (re.union (re.union (str.to_re "jj") (str.to_re "k")) (re.union (str.to_re "ll") (str.to_re "mm"))) (re.++ (re.* (re.* (str.to_re "n"))) (re.++ (re.* (re.+ (str.to_re "oo"))) (re.++ (re.+ (re.union (str.to_re "pp") (str.to_re "q"))) (re.++ (re.+ (re.union (str.to_re "rrr") (str.to_re "sss"))) (re.++ (re.union (re.+ (str.to_re "tt")) (re.+ (str.to_re "uu"))) (re.++ (re.* (re.+ (str.to_re "vv"))) (re.++ (re.+ (re.+ (str.to_re "www"))) (re.++ (re.* (re.* (str.to_re "x"))) (re.++ (re.union (re.+ (str.to_re "y")) (re.+ (str.to_re "zz"))) (re.++ (re.union (re.* (str.to_re "AA")) (re.* (str.to_re "BBB"))) (re.++ (re.union (re.+ (str.to_re "C")) (re.+ (str.to_re "DDD"))) (re.++ (re.+ (re.* (str.to_re "EEE"))) (re.++ (re.union (re.union (str.to_re "FFF") (str.to_re "G")) (re.union (str.to_re "HHH") (str.to_re "II"))) (re.++ (re.* (re.union (str.to_re "JJ") (str.to_re "KKK"))) (re.++ (re.+ (re.+ (str.to_re "L"))) (re.++ (re.+ (re.+ (str.to_re "M"))) (re.++ (re.* (re.* (str.to_re "N"))) (re.++ (re.+ (re.+ (str.to_re "OOO"))) (re.++ (re.+ (re.* (str.to_re "PP"))) (re.++ (re.* (re.* (str.to_re "Q"))) (re.++ (re.union (re.union (str.to_re "RRR") (str.to_re "SS")) (re.union (str.to_re "TT") (str.to_re "UU"))) (re.++ (re.+ (re.union (str.to_re "V") (str.to_re "WW"))) (re.++ (re.* (re.* (str.to_re "XXX"))) (re.++ (re.+ (re.* (str.to_re "Y"))) (re.++ (re.* (re.* (str.to_re "ZZZ"))) (re.++ (re.* (re.union (str.to_re "!!") (str.to_re """"""""))) (re.+ (re.+ (str.to_re "#"))))))))))))))))))))))))))))))))))))))))))))))
(check-sat)